sat

(objectives
 ((bvadd PriceProv15 (bvadd PriceProv14 (bvadd PriceProv13 (bvadd PriceProv12 (bvadd PriceProv11 (bvadd PriceProv10 (bvadd PriceProv9 (bvadd PriceProv8 (bvadd PriceProv7 (bvadd PriceProv6 (bvadd PriceProv5 (bvadd PriceProv4 (bvadd PriceProv3 (bvadd PriceProv1 PriceProv2)))))))))))))) (_ bv29256 32))
)
;; statistics
(
 :cnf-variables 1277
 :cnf-literals 3114
 :cnf-clauses 1504
 :sat-checks 12
 :sat-restarts 111
 :sat-decisions 2159840
 :sat-random-decisions 1402
 :sat-propagations 8423363815
 :sat-theory-propagations 0
 :sat-watched-clauses-visited 15951737893
 :sat-binary-watched-clauses-visited 6263630596
 :sat-conflicts 1621384
 :sat-theory-conflicts 0
 :theory-necessary-interface-equalities 0
 :theory-extra-interface-equalities 0
 :euf-total-calls 2179348
 :euf-complete-calls 12
 :euf-conflicts 0
 :euf-implications 0
 :euf-explanations 0
 :euf-egraph-nodes-created 138365
 :euf-egraph-nodes-deleted 133926
 :euf-num-asserted-equalities 77889372
 :euf-num-asserted-inequalities 31005870
 :euf-num-merges 192595997
 :euf-num-merges-undone 192595997
 :euf-num-atoms-retold 32224
 :la-total-calls 2179348
 :la-complete-calls 12
 :la-conflicts 0
 :la-implications 0
 :la-explanations 0
 :la-num-equalities-split 0
 :la-num-tableau-rows 0
 :la-num-tableau-variables 0
 :bv-total-calls 2179348
 :bv-complete-calls 12
 :bv-conflicts 0
 :bv-implications 0
 :bv-explanations 0
 :fp-total-calls 2179348
 :fp-complete-calls 12
 :fp-conflicts 0
 :fp-implications 0
 :fp-explanations 0
 :arr-total-calls 2179348
 :arr-complete-calls 12
 :arr-conflicts 0
 :arr-implications 0
 :arr-explanations 0
 :arr-write-lemmas-added 0
 :arr-row-lemmas-added 0
 :arr-ext-lemmas-added 0
 :arr-const-lemmas-added 0
 :na-total-calls 2179348
 :na-complete-calls 12
 :na-conflicts 0
 :na-implications 0
 :na-explanations 0
 :na-num_nonlinear_multiplications 0
 :na-num_axiom_checks 0
 :na-num_zero_lemmas 0
 :na-num_sign_lemmas 0
 :na-num_neutral_lemmas 0
 :na-num_proportionality_lemmas 0
 :na-num_bound_lemmas 0
 :na-num_tangent_lemmas 0
 :na-num_monotonicity_lemmas 0
 :na-num_sat_checks 0
 :na-axiom_check_time 0.000
 :na-sat_check_time 0.000
 :time-seconds 3728.219
 :memory-mb 537.632
)
